(set-info :smt-lib-version 2.6)
(set-logic QF_NIA)
(set-info :source |
Generated by: Cristina Borralleras, Daniel Larraz, Albert Oliveras, Enric Rodriguez-Carbonell, Albert Rubio
Generated on: 2017-04-27
Generator: VeryMax
Application: Termination proving
Target solver: barcelogic
|)
(set-info :license "https://creativecommons.org/licenses/by/4.0/")
(set-info :category "industrial")
(set-info :status unsat)
(declare-fun Nl2main_c1 () Int)
(declare-fun Nl2main_flag1 () Int)
(declare-fun Nl2main_x1 () Int)
(declare-fun Nl2main_y1 () Int)
(declare-fun Nl2main_z1 () Int)
(declare-fun lam0n0 () Int)
(declare-fun lam0n1 () Int)
(declare-fun lam0n2 () Int)
(declare-fun lam0n3 () Int)
(declare-fun lam0n4 () Int)
(declare-fun lam0n5 () Int)
(declare-fun lam0n6 () Int)
(declare-fun lam0n7 () Int)
(declare-fun lam0n8 () Int)
(declare-fun lam0n10 () Int)
(declare-fun lam0n9 () Int)
(declare-fun Nl2CT1 () Int)
(declare-fun lam1n0 () Int)
(declare-fun lam1n1 () Int)
(declare-fun lam1n2 () Int)
(declare-fun lam1n3 () Int)
(declare-fun lam1n4 () Int)
(declare-fun lam1n5 () Int)
(declare-fun lam1n6 () Int)
(declare-fun lam1n7 () Int)
(declare-fun lam1n8 () Int)
(declare-fun lam1n10 () Int)
(declare-fun lam1n9 () Int)
(declare-fun lam2n0 () Int)
(declare-fun lam2n1 () Int)
(declare-fun lam2n2 () Int)
(declare-fun lam2n3 () Int)
(declare-fun lam2n4 () Int)
(declare-fun lam2n5 () Int)
(declare-fun lam2n6 () Int)
(declare-fun lam2n7 () Int)
(declare-fun lam2n9 () Int)
(declare-fun lam2n8 () Int)
(declare-fun lam3n0 () Int)
(declare-fun lam3n1 () Int)
(declare-fun lam3n2 () Int)
(declare-fun lam3n3 () Int)
(declare-fun lam3n4 () Int)
(declare-fun lam3n5 () Int)
(declare-fun lam3n6 () Int)
(declare-fun lam3n7 () Int)
(declare-fun lam3n9 () Int)
(declare-fun lam3n8 () Int)
(declare-fun lam4n0 () Int)
(declare-fun lam4n1 () Int)
(declare-fun lam4n2 () Int)
(declare-fun lam4n3 () Int)
(declare-fun lam4n4 () Int)
(declare-fun lam4n5 () Int)
(declare-fun lam4n8 () Int)
(declare-fun lam4n6 () Int)
(declare-fun lam4n7 () Int)
(declare-fun lam5n0 () Int)
(declare-fun lam5n1 () Int)
(declare-fun lam5n2 () Int)
(declare-fun lam5n3 () Int)
(declare-fun lam5n4 () Int)
(declare-fun lam5n5 () Int)
(declare-fun lam5n8 () Int)
(declare-fun lam5n6 () Int)
(declare-fun lam5n7 () Int)
(declare-fun lam6n0 () Int)
(declare-fun lam6n1 () Int)
(declare-fun lam6n2 () Int)
(declare-fun lam6n3 () Int)
(declare-fun lam6n4 () Int)
(declare-fun lam6n5 () Int)
(declare-fun lam6n6 () Int)
(declare-fun lam6n7 () Int)
(declare-fun lam6n8 () Int)
(declare-fun lam6n10 () Int)
(declare-fun lam6n9 () Int)
(declare-fun lam7n0 () Int)
(declare-fun lam7n1 () Int)
(declare-fun lam7n2 () Int)
(declare-fun lam7n3 () Int)
(declare-fun lam7n4 () Int)
(declare-fun lam7n5 () Int)
(declare-fun lam7n6 () Int)
(declare-fun lam7n7 () Int)
(declare-fun lam7n8 () Int)
(declare-fun lam7n10 () Int)
(declare-fun lam7n9 () Int)
(declare-fun lam8n0 () Int)
(declare-fun lam8n1 () Int)
(declare-fun lam8n2 () Int)
(declare-fun lam8n3 () Int)
(declare-fun lam8n4 () Int)
(declare-fun lam8n5 () Int)
(declare-fun lam8n6 () Int)
(declare-fun lam8n7 () Int)
(declare-fun lam8n8 () Int)
(declare-fun lam8n10 () Int)
(declare-fun lam8n9 () Int)
(declare-fun lam9n0 () Int)
(declare-fun lam9n1 () Int)
(declare-fun lam9n2 () Int)
(declare-fun lam9n3 () Int)
(declare-fun lam9n4 () Int)
(declare-fun lam9n5 () Int)
(declare-fun lam9n6 () Int)
(declare-fun lam9n7 () Int)
(declare-fun lam9n8 () Int)
(declare-fun lam9n10 () Int)
(declare-fun lam9n9 () Int)
(declare-fun lam10n0 () Int)
(declare-fun lam10n1 () Int)
(declare-fun lam10n2 () Int)
(declare-fun lam10n3 () Int)
(declare-fun lam10n4 () Int)
(declare-fun lam10n5 () Int)
(declare-fun lam10n6 () Int)
(declare-fun lam10n7 () Int)
(declare-fun lam10n9 () Int)
(declare-fun lam10n8 () Int)
(declare-fun lam11n0 () Int)
(declare-fun lam11n1 () Int)
(declare-fun lam11n2 () Int)
(declare-fun lam11n3 () Int)
(declare-fun lam11n4 () Int)
(declare-fun lam11n5 () Int)
(declare-fun lam11n6 () Int)
(declare-fun lam11n7 () Int)
(declare-fun lam11n9 () Int)
(declare-fun lam11n8 () Int)
(declare-fun lam12n0 () Int)
(declare-fun lam12n1 () Int)
(declare-fun lam12n2 () Int)
(declare-fun lam12n3 () Int)
(declare-fun lam12n4 () Int)
(declare-fun lam12n5 () Int)
(declare-fun lam12n8 () Int)
(declare-fun lam12n6 () Int)
(declare-fun lam12n7 () Int)
(declare-fun lam13n0 () Int)
(declare-fun lam13n1 () Int)
(declare-fun lam13n2 () Int)
(declare-fun lam13n3 () Int)
(declare-fun lam13n4 () Int)
(declare-fun lam13n5 () Int)
(declare-fun lam13n8 () Int)
(declare-fun lam13n6 () Int)
(declare-fun lam13n7 () Int)
(declare-fun lam14n0 () Int)
(declare-fun lam14n1 () Int)
(declare-fun lam14n2 () Int)
(declare-fun lam14n3 () Int)
(declare-fun lam14n4 () Int)
(declare-fun lam14n5 () Int)
(declare-fun lam14n10 () Int)
(declare-fun lam14n6 () Int)
(declare-fun lam14n7 () Int)
(declare-fun lam14n8 () Int)
(declare-fun lam14n9 () Int)
(declare-fun lam15n0 () Int)
(declare-fun lam15n1 () Int)
(declare-fun lam15n2 () Int)
(declare-fun lam15n3 () Int)
(declare-fun lam15n8 () Int)
(declare-fun lam15n4 () Int)
(declare-fun lam15n5 () Int)
(declare-fun lam15n6 () Int)
(declare-fun lam15n7 () Int)
(declare-fun main_c () Int)
(declare-fun main_flag () Int)
(declare-fun main_y () Int)
(declare-fun main_z () Int)
(declare-fun main_x () Int)
(declare-fun undef4 () Int)
(declare-fun undef5 () Int)
(declare-fun undef6 () Int)
(declare-fun lam19n0 () Int)
(declare-fun lam19n1 () Int)
(declare-fun lam19n2 () Int)
(declare-fun lam19n3 () Int)
(declare-fun lam19n4 () Int)
(declare-fun lam19n5 () Int)
(declare-fun lam19n6 () Int)
(declare-fun lam19n7 () Int)
(declare-fun lam19n8 () Int)
(declare-fun lam19n9 () Int)
(declare-fun lam19n11 () Int)
(declare-fun lam19n10 () Int)
(declare-fun RFN1_CT () Int)
(declare-fun RFN1_main_c () Int)
(declare-fun RFN1_main_y () Int)
(declare-fun RFN1_main_flag () Int)
(declare-fun RFN1_main_x () Int)
(declare-fun RFN1_main_z () Int)
(declare-fun lam17n0 () Int)
(declare-fun lam17n1 () Int)
(declare-fun lam17n2 () Int)
(declare-fun lam17n3 () Int)
(declare-fun lam17n4 () Int)
(declare-fun lam17n5 () Int)
(declare-fun lam17n6 () Int)
(declare-fun lam17n7 () Int)
(declare-fun lam17n8 () Int)
(declare-fun lam17n9 () Int)
(declare-fun lam17n11 () Int)
(declare-fun lam17n10 () Int)
(declare-fun lam18n0 () Int)
(declare-fun lam18n1 () Int)
(declare-fun lam18n2 () Int)
(declare-fun lam18n3 () Int)
(declare-fun lam18n4 () Int)
(declare-fun lam18n5 () Int)
(declare-fun lam18n6 () Int)
(declare-fun lam18n7 () Int)
(declare-fun lam18n8 () Int)
(declare-fun lam18n9 () Int)
(declare-fun lam18n11 () Int)
(declare-fun lam18n10 () Int)
(declare-fun lam16n0 () Int)
(declare-fun lam16n1 () Int)
(declare-fun lam16n2 () Int)
(declare-fun lam16n3 () Int)
(declare-fun lam16n4 () Int)
(declare-fun lam16n5 () Int)
(declare-fun lam16n6 () Int)
(declare-fun lam16n7 () Int)
(declare-fun lam16n8 () Int)
(declare-fun lam16n9 () Int)
(declare-fun lam16n11 () Int)
(declare-fun lam16n10 () Int)
(assert ( and ( <= ( - 1 ) Nl2main_c1 ) ( <= Nl2main_c1 1 ) ( <= ( - 1 ) Nl2main_flag1 ) ( <= Nl2main_flag1 1 ) ( <= ( - 1 ) Nl2main_x1 ) ( <= Nl2main_x1 1 ) ( <= ( - 1 ) Nl2main_y1 ) ( <= Nl2main_y1 1 ) ( <= ( - 1 ) Nl2main_z1 ) ( <= Nl2main_z1 1 ) ))
(assert ( or ( and ( >= lam0n0 0 ) ( >= lam0n1 0 ) ( >= lam0n2 0 ) ( >= lam0n3 0 ) ( >= lam0n4 0 ) ( >= lam0n5 0 ) ( >= lam0n6 0 ) ( >= lam0n7 0 ) ( >= lam0n8 0 ) ( >= lam0n10 0 ) ( > ( + ( * 1 lam0n1 ) ( * 1 lam0n2 ) ( * 1 lam0n3 ) ( * ( - 1 ) lam0n4 ) ( * 2 lam0n5 ) ( * 2 lam0n6 ) ( * 2 lam0n7 ) ( * 2 lam0n8 ) ( * ( - 1 ) lam0n9 ) ( * Nl2CT1 lam0n10 ) ( - 1 ) ) 0 ) ( = ( + ( * ( - 1 ) lam0n0 ) ( * ( - 1 ) lam0n1 ) ( * ( - 1 ) lam0n5 ) ( * ( - 1 ) lam0n6 ) ( * Nl2main_c1 lam0n10 ) ) 0 ) ( = ( + ( * ( - 1 ) lam0n1 ) ( * 1 lam0n4 ) ( * ( - 1 ) lam0n5 ) ( * ( - 1 ) lam0n6 ) ( * ( - 1 ) lam0n7 ) ( * 1 lam0n9 ) ( * Nl2main_flag1 lam0n10 ) ) 0 ) ( = ( + ( * ( - 1 ) lam0n4 ) ( * ( - 1 ) lam0n7 ) ( * ( - 1 ) lam0n8 ) ( * Nl2main_x1 lam0n10 ) ) 0 ) ( = ( + ( * ( - 1 ) lam0n1 ) ( * 1 lam0n2 ) ( * ( - 1 ) lam0n3 ) ( * ( - 1 ) lam0n6 ) ( * Nl2main_y1 lam0n10 ) ) 0 ) ( = ( + ( * 1 lam0n1 ) ( * ( - 1 ) lam0n2 ) ( * Nl2main_z1 lam0n10 ) ) 0 ) ) ( and ( >= lam1n0 0 ) ( >= lam1n1 0 ) ( >= lam1n2 0 ) ( >= lam1n3 0 ) ( >= lam1n4 0 ) ( >= lam1n5 0 ) ( >= lam1n6 0 ) ( >= lam1n7 0 ) ( >= lam1n8 0 ) ( >= lam1n10 0 ) ( > ( + ( * 1 lam1n1 ) ( * 1 lam1n2 ) ( * 1 lam1n3 ) ( * ( - 1 ) lam1n4 ) ( * 2 lam1n5 ) ( * 2 lam1n6 ) ( * 2 lam1n7 ) ( * 2 lam1n8 ) ( * ( - 1 ) lam1n9 ) ( * Nl2CT1 lam1n10 ) ( - 1 ( + ( + Nl2CT1 ( * Nl2main_c1 1 ) ) ( * Nl2main_y1 0 ) ) ) ) 0 ) ( = ( + ( * ( - 1 ) lam1n0 ) ( * ( - 1 ) lam1n1 ) ( * ( - 1 ) lam1n5 ) ( * ( - 1 ) lam1n6 ) ( * Nl2main_c1 lam1n10 ) ( - ( + 0 ( * Nl2main_c1 1 ) ) ) ) 0 ) ( = ( + ( * ( - 1 ) lam1n1 ) ( * 1 lam1n4 ) ( * ( - 1 ) lam1n5 ) ( * ( - 1 ) lam1n6 ) ( * ( - 1 ) lam1n7 ) ( * 1 lam1n9 ) ( * Nl2main_flag1 lam1n10 ) ( - ( + 0 Nl2main_flag1 ) ) ) 0 ) ( = ( + ( * ( - 1 ) lam1n4 ) ( * ( - 1 ) lam1n7 ) ( * ( - 1 ) lam1n8 ) ( * Nl2main_x1 lam1n10 ) ( - ( + 0 Nl2main_x1 ) ) ) 0 ) ( = ( + ( * ( - 1 ) lam1n1 ) ( * 1 lam1n2 ) ( * ( - 1 ) lam1n3 ) ( * ( - 1 ) lam1n6 ) ( * Nl2main_y1 lam1n10 ) ) 0 ) ( = ( + ( * 1 lam1n1 ) ( * ( - 1 ) lam1n2 ) ( * Nl2main_z1 lam1n10 ) ( - ( + 0 Nl2main_z1 ) ) ) 0 ) ( = ( - ( + 0 ( * Nl2main_y1 1 ) ) ) 0 ) ) ))
(assert ( or ( and ( >= lam2n0 0 ) ( >= lam2n1 0 ) ( >= lam2n2 0 ) ( >= lam2n3 0 ) ( >= lam2n4 0 ) ( >= lam2n5 0 ) ( >= lam2n6 0 ) ( >= lam2n7 0 ) ( >= lam2n9 0 ) ( > ( + ( * 1 lam2n2 ) ( * 1 lam2n3 ) ( * ( - 1 ) lam2n4 ) ( * 2 lam2n5 ) ( * 2 lam2n6 ) ( * 2 lam2n7 ) ( * ( - 1 ) lam2n8 ) ( * Nl2CT1 lam2n9 ) ( - 1 ) ) 0 ) ( = ( + ( * 1 lam2n0 ) ( * ( - 1 ) lam2n1 ) ( * ( - 1 ) lam2n5 ) ( * Nl2main_c1 lam2n9 ) ) 0 ) ( = ( + ( * 1 lam2n0 ) ( * 1 lam2n4 ) ( * ( - 1 ) lam2n5 ) ( * ( - 1 ) lam2n6 ) ( * 1 lam2n8 ) ( * Nl2main_flag1 lam2n9 ) ) 0 ) ( = ( + ( * ( - 1 ) lam2n4 ) ( * ( - 1 ) lam2n6 ) ( * ( - 1 ) lam2n7 ) ( * Nl2main_x1 lam2n9 ) ) 0 ) ( = ( + ( * 1 lam2n0 ) ( * 1 lam2n2 ) ( * ( - 1 ) lam2n3 ) ( * ( - 1 ) lam2n5 ) ( * Nl2main_y1 lam2n9 ) ) 0 ) ( = ( + ( * ( - 1 ) lam2n0 ) ( * ( - 1 ) lam2n2 ) ( * Nl2main_z1 lam2n9 ) ) 0 ) ) ( and ( >= lam3n0 0 ) ( >= lam3n1 0 ) ( >= lam3n2 0 ) ( >= lam3n3 0 ) ( >= lam3n4 0 ) ( >= lam3n5 0 ) ( >= lam3n6 0 ) ( >= lam3n7 0 ) ( >= lam3n9 0 ) ( > ( + ( * 1 lam3n2 ) ( * 1 lam3n3 ) ( * ( - 1 ) lam3n4 ) ( * 2 lam3n5 ) ( * 2 lam3n6 ) ( * 2 lam3n7 ) ( * ( - 1 ) lam3n8 ) ( * Nl2CT1 lam3n9 ) ( - 1 ( + ( + Nl2CT1 ( * Nl2main_c1 1 ) ) ( * Nl2main_y1 0 ) ) ) ) 0 ) ( = ( + ( * 1 lam3n0 ) ( * ( - 1 ) lam3n1 ) ( * ( - 1 ) lam3n5 ) ( * Nl2main_c1 lam3n9 ) ( - ( + 0 ( * Nl2main_c1 1 ) ) ) ) 0 ) ( = ( + ( * 1 lam3n0 ) ( * 1 lam3n4 ) ( * ( - 1 ) lam3n5 ) ( * ( - 1 ) lam3n6 ) ( * 1 lam3n8 ) ( * Nl2main_flag1 lam3n9 ) ( - ( + 0 Nl2main_flag1 ) ) ) 0 ) ( = ( + ( * ( - 1 ) lam3n4 ) ( * ( - 1 ) lam3n6 ) ( * ( - 1 ) lam3n7 ) ( * Nl2main_x1 lam3n9 ) ( - ( + 0 Nl2main_x1 ) ) ) 0 ) ( = ( + ( * 1 lam3n0 ) ( * 1 lam3n2 ) ( * ( - 1 ) lam3n3 ) ( * ( - 1 ) lam3n5 ) ( * Nl2main_y1 lam3n9 ) ) 0 ) ( = ( + ( * ( - 1 ) lam3n0 ) ( * ( - 1 ) lam3n2 ) ( * Nl2main_z1 lam3n9 ) ( - ( + 0 Nl2main_z1 ) ) ) 0 ) ( = ( - ( + 0 ( * Nl2main_y1 1 ) ) ) 0 ) ) ))
(assert ( or ( and ( >= lam4n0 0 ) ( >= lam4n1 0 ) ( >= lam4n2 0 ) ( >= lam4n3 0 ) ( >= lam4n4 0 ) ( >= lam4n5 0 ) ( >= lam4n8 0 ) ( > ( + ( * 1 lam4n1 ) ( * 1 lam4n2 ) ( * ( - 1 ) lam4n3 ) ( * 2 lam4n4 ) ( * 2 lam4n5 ) ( * 1 lam4n6 ) ( * ( - 1 ) lam4n7 ) ( * Nl2CT1 lam4n8 ) ( - 1 ) ) 0 ) ( = ( + ( * 1 lam4n0 ) ( * 1 lam4n6 ) ( * Nl2main_c1 lam4n8 ) ) 0 ) ( = ( + ( * 1 lam4n0 ) ( * 1 lam4n3 ) ( * ( - 1 ) lam4n4 ) ( * 1 lam4n7 ) ( * Nl2main_flag1 lam4n8 ) ) 0 ) ( = ( + ( * ( - 1 ) lam4n3 ) ( * ( - 1 ) lam4n4 ) ( * ( - 1 ) lam4n5 ) ( * Nl2main_x1 lam4n8 ) ) 0 ) ( = ( + ( * 1 lam4n0 ) ( * 1 lam4n1 ) ( * ( - 1 ) lam4n2 ) ( * Nl2main_y1 lam4n8 ) ) 0 ) ( = ( + ( * ( - 1 ) lam4n0 ) ( * ( - 1 ) lam4n1 ) ( * Nl2main_z1 lam4n8 ) ) 0 ) ) ( and ( >= lam5n0 0 ) ( >= lam5n1 0 ) ( >= lam5n2 0 ) ( >= lam5n3 0 ) ( >= lam5n4 0 ) ( >= lam5n5 0 ) ( >= lam5n8 0 ) ( > ( + ( * 1 lam5n1 ) ( * 1 lam5n2 ) ( * ( - 1 ) lam5n3 ) ( * 2 lam5n4 ) ( * 2 lam5n5 ) ( * 1 lam5n6 ) ( * ( - 1 ) lam5n7 ) ( * Nl2CT1 lam5n8 ) ( - 1 ( + ( + Nl2CT1 ( * Nl2main_c1 1 ) ) ( * Nl2main_y1 0 ) ) ) ) 0 ) ( = ( + ( * 1 lam5n0 ) ( * 1 lam5n6 ) ( * Nl2main_c1 lam5n8 ) ( - ( + 0 ( * Nl2main_c1 1 ) ) ) ) 0 ) ( = ( + ( * 1 lam5n0 ) ( * 1 lam5n3 ) ( * ( - 1 ) lam5n4 ) ( * 1 lam5n7 ) ( * Nl2main_flag1 lam5n8 ) ( - ( + 0 Nl2main_flag1 ) ) ) 0 ) ( = ( + ( * ( - 1 ) lam5n3 ) ( * ( - 1 ) lam5n4 ) ( * ( - 1 ) lam5n5 ) ( * Nl2main_x1 lam5n8 ) ( - ( + 0 Nl2main_x1 ) ) ) 0 ) ( = ( + ( * 1 lam5n0 ) ( * 1 lam5n1 ) ( * ( - 1 ) lam5n2 ) ( * Nl2main_y1 lam5n8 ) ) 0 ) ( = ( + ( * ( - 1 ) lam5n0 ) ( * ( - 1 ) lam5n1 ) ( * Nl2main_z1 lam5n8 ) ( - ( + 0 Nl2main_z1 ) ) ) 0 ) ( = ( - ( + 0 ( * Nl2main_y1 1 ) ) ) 0 ) ) ))
(assert ( or ( and ( >= lam6n0 0 ) ( >= lam6n1 0 ) ( >= lam6n2 0 ) ( >= lam6n3 0 ) ( >= lam6n4 0 ) ( >= lam6n5 0 ) ( >= lam6n6 0 ) ( >= lam6n7 0 ) ( >= lam6n8 0 ) ( >= lam6n10 0 ) ( > ( + ( * 1 lam6n2 ) ( * ( - 1 ) lam6n3 ) ( * ( - 1 ) lam6n4 ) ( * 2 lam6n5 ) ( * 2 lam6n6 ) ( * 2 lam6n7 ) ( * 2 lam6n8 ) ( * ( - 1 ) lam6n9 ) ( * Nl2CT1 lam6n10 ) ( - 1 ) ) 0 ) ( = ( + ( * ( - 1 ) lam6n0 ) ( * 1 lam6n3 ) ( * ( - 1 ) lam6n5 ) ( * ( - 1 ) lam6n6 ) ( * Nl2main_c1 lam6n10 ) ) 0 ) ( = ( + ( * 1 lam6n3 ) ( * 1 lam6n4 ) ( * ( - 1 ) lam6n5 ) ( * ( - 1 ) lam6n6 ) ( * ( - 1 ) lam6n7 ) ( * 1 lam6n9 ) ( * Nl2main_flag1 lam6n10 ) ) 0 ) ( = ( + ( * ( - 1 ) lam6n4 ) ( * ( - 1 ) lam6n7 ) ( * ( - 1 ) lam6n8 ) ( * Nl2main_x1 lam6n10 ) ) 0 ) ( = ( + ( * 1 lam6n1 ) ( * 1 lam6n2 ) ( * 1 lam6n3 ) ( * ( - 1 ) lam6n6 ) ( * Nl2main_y1 lam6n10 ) ) 0 ) ( = ( + ( * ( - 1 ) lam6n2 ) ( * 1 lam6n6 ) ( * Nl2main_z1 lam6n10 ) ) 0 ) ) ( and ( >= lam7n0 0 ) ( >= lam7n1 0 ) ( >= lam7n2 0 ) ( >= lam7n3 0 ) ( >= lam7n4 0 ) ( >= lam7n5 0 ) ( >= lam7n6 0 ) ( >= lam7n7 0 ) ( >= lam7n8 0 ) ( >= lam7n10 0 ) ( > ( + ( * 1 lam7n2 ) ( * ( - 1 ) lam7n3 ) ( * ( - 1 ) lam7n4 ) ( * 2 lam7n5 ) ( * 2 lam7n6 ) ( * 2 lam7n7 ) ( * 2 lam7n8 ) ( * ( - 1 ) lam7n9 ) ( * Nl2CT1 lam7n10 ) ( - 1 ( + ( + Nl2CT1 ( * Nl2main_c1 1 ) ) ( * Nl2main_flag1 0 ) ) ) ) 0 ) ( = ( + ( * ( - 1 ) lam7n0 ) ( * 1 lam7n3 ) ( * ( - 1 ) lam7n5 ) ( * ( - 1 ) lam7n6 ) ( * Nl2main_c1 lam7n10 ) ( - ( + 0 ( * Nl2main_c1 1 ) ) ) ) 0 ) ( = ( + ( * 1 lam7n3 ) ( * 1 lam7n4 ) ( * ( - 1 ) lam7n5 ) ( * ( - 1 ) lam7n6 ) ( * ( - 1 ) lam7n7 ) ( * 1 lam7n9 ) ( * Nl2main_flag1 lam7n10 ) ) 0 ) ( = ( + ( * ( - 1 ) lam7n4 ) ( * ( - 1 ) lam7n7 ) ( * ( - 1 ) lam7n8 ) ( * Nl2main_x1 lam7n10 ) ( - ( + 0 Nl2main_x1 ) ) ) 0 ) ( = ( + ( * 1 lam7n1 ) ( * 1 lam7n2 ) ( * 1 lam7n3 ) ( * ( - 1 ) lam7n6 ) ( * Nl2main_y1 lam7n10 ) ( - ( + 0 Nl2main_y1 ) ) ) 0 ) ( = ( + ( * ( - 1 ) lam7n2 ) ( * 1 lam7n6 ) ( * Nl2main_z1 lam7n10 ) ( - ( + 0 Nl2main_z1 ) ) ) 0 ) ) ))
(assert ( or ( and ( >= lam8n0 0 ) ( >= lam8n1 0 ) ( >= lam8n2 0 ) ( >= lam8n3 0 ) ( >= lam8n4 0 ) ( >= lam8n5 0 ) ( >= lam8n6 0 ) ( >= lam8n7 0 ) ( >= lam8n8 0 ) ( >= lam8n10 0 ) ( > ( + ( * 1 lam8n2 ) ( * 1 lam8n3 ) ( * ( - 1 ) lam8n4 ) ( * 2 lam8n5 ) ( * 2 lam8n6 ) ( * 2 lam8n7 ) ( * 2 lam8n8 ) ( * ( - 1 ) lam8n9 ) ( * Nl2CT1 lam8n10 ) ( - 1 ) ) 0 ) ( = ( + ( * ( - 1 ) lam8n0 ) ( * ( - 1 ) lam8n2 ) ( * ( - 1 ) lam8n5 ) ( * ( - 1 ) lam8n6 ) ( * Nl2main_c1 lam8n10 ) ) 0 ) ( = ( + ( * ( - 1 ) lam8n2 ) ( * 1 lam8n4 ) ( * ( - 1 ) lam8n5 ) ( * ( - 1 ) lam8n6 ) ( * ( - 1 ) lam8n7 ) ( * 1 lam8n9 ) ( * Nl2main_flag1 lam8n10 ) ) 0 ) ( = ( + ( * ( - 1 ) lam8n4 ) ( * ( - 1 ) lam8n7 ) ( * ( - 1 ) lam8n8 ) ( * Nl2main_x1 lam8n10 ) ) 0 ) ( = ( + ( * 1 lam8n1 ) ( * ( - 1 ) lam8n2 ) ( * 1 lam8n3 ) ( * ( - 1 ) lam8n6 ) ( * Nl2main_y1 lam8n10 ) ) 0 ) ( = ( + ( * 1 lam8n2 ) ( * ( - 1 ) lam8n3 ) ( * Nl2main_z1 lam8n10 ) ) 0 ) ) ( and ( >= lam9n0 0 ) ( >= lam9n1 0 ) ( >= lam9n2 0 ) ( >= lam9n3 0 ) ( >= lam9n4 0 ) ( >= lam9n5 0 ) ( >= lam9n6 0 ) ( >= lam9n7 0 ) ( >= lam9n8 0 ) ( >= lam9n10 0 ) ( > ( + ( * 1 lam9n2 ) ( * 1 lam9n3 ) ( * ( - 1 ) lam9n4 ) ( * 2 lam9n5 ) ( * 2 lam9n6 ) ( * 2 lam9n7 ) ( * 2 lam9n8 ) ( * ( - 1 ) lam9n9 ) ( * Nl2CT1 lam9n10 ) ( - 1 ( + ( + Nl2CT1 ( * Nl2main_c1 1 ) ) ( * Nl2main_flag1 0 ) ) ) ) 0 ) ( = ( + ( * ( - 1 ) lam9n0 ) ( * ( - 1 ) lam9n2 ) ( * ( - 1 ) lam9n5 ) ( * ( - 1 ) lam9n6 ) ( * Nl2main_c1 lam9n10 ) ( - ( + 0 ( * Nl2main_c1 1 ) ) ) ) 0 ) ( = ( + ( * ( - 1 ) lam9n2 ) ( * 1 lam9n4 ) ( * ( - 1 ) lam9n5 ) ( * ( - 1 ) lam9n6 ) ( * ( - 1 ) lam9n7 ) ( * 1 lam9n9 ) ( * Nl2main_flag1 lam9n10 ) ) 0 ) ( = ( + ( * ( - 1 ) lam9n4 ) ( * ( - 1 ) lam9n7 ) ( * ( - 1 ) lam9n8 ) ( * Nl2main_x1 lam9n10 ) ( - ( + 0 Nl2main_x1 ) ) ) 0 ) ( = ( + ( * 1 lam9n1 ) ( * ( - 1 ) lam9n2 ) ( * 1 lam9n3 ) ( * ( - 1 ) lam9n6 ) ( * Nl2main_y1 lam9n10 ) ( - ( + 0 Nl2main_y1 ) ) ) 0 ) ( = ( + ( * 1 lam9n2 ) ( * ( - 1 ) lam9n3 ) ( * Nl2main_z1 lam9n10 ) ( - ( + 0 Nl2main_z1 ) ) ) 0 ) ) ))
(assert ( or ( and ( >= lam10n0 0 ) ( >= lam10n1 0 ) ( >= lam10n2 0 ) ( >= lam10n3 0 ) ( >= lam10n4 0 ) ( >= lam10n5 0 ) ( >= lam10n6 0 ) ( >= lam10n7 0 ) ( >= lam10n9 0 ) ( > ( + ( * 1 lam10n3 ) ( * ( - 1 ) lam10n4 ) ( * 2 lam10n5 ) ( * 2 lam10n6 ) ( * 2 lam10n7 ) ( * ( - 1 ) lam10n8 ) ( * Nl2CT1 lam10n9 ) ( - 1 ) ) 0 ) ( = ( + ( * 1 lam10n0 ) ( * ( - 1 ) lam10n1 ) ( * ( - 1 ) lam10n5 ) ( * Nl2main_c1 lam10n9 ) ) 0 ) ( = ( + ( * 1 lam10n0 ) ( * 1 lam10n4 ) ( * ( - 1 ) lam10n5 ) ( * ( - 1 ) lam10n6 ) ( * 1 lam10n8 ) ( * Nl2main_flag1 lam10n9 ) ) 0 ) ( = ( + ( * ( - 1 ) lam10n4 ) ( * ( - 1 ) lam10n6 ) ( * ( - 1 ) lam10n7 ) ( * Nl2main_x1 lam10n9 ) ) 0 ) ( = ( + ( * 1 lam10n0 ) ( * 1 lam10n2 ) ( * 1 lam10n3 ) ( * ( - 1 ) lam10n5 ) ( * Nl2main_y1 lam10n9 ) ) 0 ) ( = ( + ( * ( - 1 ) lam10n0 ) ( * ( - 1 ) lam10n3 ) ( * Nl2main_z1 lam10n9 ) ) 0 ) ) ( and ( >= lam11n0 0 ) ( >= lam11n1 0 ) ( >= lam11n2 0 ) ( >= lam11n3 0 ) ( >= lam11n4 0 ) ( >= lam11n5 0 ) ( >= lam11n6 0 ) ( >= lam11n7 0 ) ( >= lam11n9 0 ) ( > ( + ( * 1 lam11n3 ) ( * ( - 1 ) lam11n4 ) ( * 2 lam11n5 ) ( * 2 lam11n6 ) ( * 2 lam11n7 ) ( * ( - 1 ) lam11n8 ) ( * Nl2CT1 lam11n9 ) ( - 1 ( + ( + Nl2CT1 ( * Nl2main_c1 1 ) ) ( * Nl2main_flag1 0 ) ) ) ) 0 ) ( = ( + ( * 1 lam11n0 ) ( * ( - 1 ) lam11n1 ) ( * ( - 1 ) lam11n5 ) ( * Nl2main_c1 lam11n9 ) ( - ( + 0 ( * Nl2main_c1 1 ) ) ) ) 0 ) ( = ( + ( * 1 lam11n0 ) ( * 1 lam11n4 ) ( * ( - 1 ) lam11n5 ) ( * ( - 1 ) lam11n6 ) ( * 1 lam11n8 ) ( * Nl2main_flag1 lam11n9 ) ) 0 ) ( = ( + ( * ( - 1 ) lam11n4 ) ( * ( - 1 ) lam11n6 ) ( * ( - 1 ) lam11n7 ) ( * Nl2main_x1 lam11n9 ) ( - ( + 0 Nl2main_x1 ) ) ) 0 ) ( = ( + ( * 1 lam11n0 ) ( * 1 lam11n2 ) ( * 1 lam11n3 ) ( * ( - 1 ) lam11n5 ) ( * Nl2main_y1 lam11n9 ) ( - ( + 0 Nl2main_y1 ) ) ) 0 ) ( = ( + ( * ( - 1 ) lam11n0 ) ( * ( - 1 ) lam11n3 ) ( * Nl2main_z1 lam11n9 ) ( - ( + 0 Nl2main_z1 ) ) ) 0 ) ) ))
(assert ( or ( and ( >= lam12n0 0 ) ( >= lam12n1 0 ) ( >= lam12n2 0 ) ( >= lam12n3 0 ) ( >= lam12n4 0 ) ( >= lam12n5 0 ) ( >= lam12n8 0 ) ( > ( + ( * 1 lam12n2 ) ( * ( - 1 ) lam12n3 ) ( * 2 lam12n4 ) ( * 2 lam12n5 ) ( * 1 lam12n6 ) ( * ( - 1 ) lam12n7 ) ( * Nl2CT1 lam12n8 ) ( - 1 ) ) 0 ) ( = ( + ( * 1 lam12n0 ) ( * 1 lam12n6 ) ( * Nl2main_c1 lam12n8 ) ) 0 ) ( = ( + ( * 1 lam12n0 ) ( * 1 lam12n3 ) ( * ( - 1 ) lam12n4 ) ( * 1 lam12n7 ) ( * Nl2main_flag1 lam12n8 ) ) 0 ) ( = ( + ( * ( - 1 ) lam12n3 ) ( * ( - 1 ) lam12n4 ) ( * ( - 1 ) lam12n5 ) ( * Nl2main_x1 lam12n8 ) ) 0 ) ( = ( + ( * 1 lam12n0 ) ( * 1 lam12n1 ) ( * 1 lam12n2 ) ( * Nl2main_y1 lam12n8 ) ) 0 ) ( = ( + ( * ( - 1 ) lam12n0 ) ( * ( - 1 ) lam12n2 ) ( * Nl2main_z1 lam12n8 ) ) 0 ) ) ( and ( >= lam13n0 0 ) ( >= lam13n1 0 ) ( >= lam13n2 0 ) ( >= lam13n3 0 ) ( >= lam13n4 0 ) ( >= lam13n5 0 ) ( >= lam13n8 0 ) ( > ( + ( * 1 lam13n2 ) ( * ( - 1 ) lam13n3 ) ( * 2 lam13n4 ) ( * 2 lam13n5 ) ( * 1 lam13n6 ) ( * ( - 1 ) lam13n7 ) ( * Nl2CT1 lam13n8 ) ( - 1 ( + ( + Nl2CT1 ( * Nl2main_c1 1 ) ) ( * Nl2main_flag1 0 ) ) ) ) 0 ) ( = ( + ( * 1 lam13n0 ) ( * 1 lam13n6 ) ( * Nl2main_c1 lam13n8 ) ( - ( + 0 ( * Nl2main_c1 1 ) ) ) ) 0 ) ( = ( + ( * 1 lam13n0 ) ( * 1 lam13n3 ) ( * ( - 1 ) lam13n4 ) ( * 1 lam13n7 ) ( * Nl2main_flag1 lam13n8 ) ) 0 ) ( = ( + ( * ( - 1 ) lam13n3 ) ( * ( - 1 ) lam13n4 ) ( * ( - 1 ) lam13n5 ) ( * Nl2main_x1 lam13n8 ) ( - ( + 0 Nl2main_x1 ) ) ) 0 ) ( = ( + ( * 1 lam13n0 ) ( * 1 lam13n1 ) ( * 1 lam13n2 ) ( * Nl2main_y1 lam13n8 ) ( - ( + 0 Nl2main_y1 ) ) ) 0 ) ( = ( + ( * ( - 1 ) lam13n0 ) ( * ( - 1 ) lam13n2 ) ( * Nl2main_z1 lam13n8 ) ( - ( + 0 Nl2main_z1 ) ) ) 0 ) ) ))
(assert ( or ( and ( not ( <= ( + 1 ( * ( - 1 ) main_c ) ( * ( - 1 ) main_flag ) ( * ( - 1 ) main_y ) main_z ) 0 ) ) ( <= ( + ( - 1 ) main_flag main_x ) 0 ) ( not ( <= ( + ( - 1 ) main_c main_flag main_y ) 0 ) ) ( not ( <= ( + ( - 1 ) main_flag ( * ( - 1 ) main_x ) ) 0 ) ) ( not ( <= ( + ( - 1 ) main_flag main_y ) 0 ) ) ( not ( <= ( + ( - 1 ) ( * ( - 1 ) main_x ) ) 0 ) ) ( = main_c 0 ) ( = ( + main_x ( * ( - 1 ) undef4 ) ) 0 ) ( = ( + main_y ( * ( - 1 ) undef5 ) ) 0 ) ( = ( + main_z ( * ( - 1 ) undef6 ) ) 0 ) ( = ( + ( - 1 ) main_flag ) 0 ) ( <= ( + Nl2CT1 ( * ( + 0 Nl2main_c1 ) main_c ) ( * ( + 0 Nl2main_flag1 ) main_flag ) ( * ( + 0 Nl2main_x1 ) main_x ) ( * ( + 0 Nl2main_y1 ) main_y ) ( * ( + 0 Nl2main_z1 ) main_z ) ) 0 ) ( <= ( + ( - 1 ) ( * ( - 1 ) main_x ) ) 0 ) ( <= ( + ( - 1 ) ( * ( - 1 ) main_c ) ) 0 ) ) ( and ( not ( <= ( + 1 ( * ( - 1 ) main_c ) ( * ( - 1 ) main_flag ) ( * ( - 1 ) main_y ) main_z ) 0 ) ) ( not ( <= ( + ( - 1 ) main_c main_flag main_y ) 0 ) ) ( not ( <= ( + ( - 1 ) main_flag main_x ) 0 ) ) ( not ( <= ( + ( - 1 ) main_x ) 0 ) ) ( = main_c 0 ) ( = ( + main_x ( * ( - 1 ) undef4 ) ) 0 ) ( = ( + main_y ( * ( - 1 ) undef5 ) ) 0 ) ( = ( + main_z ( * ( - 1 ) undef6 ) ) 0 ) ( = ( + ( - 1 ) main_flag ) 0 ) ( <= ( + Nl2CT1 ( * ( + 0 Nl2main_c1 ) main_c ) ( * ( + 0 Nl2main_flag1 ) main_flag ) ( * ( + 0 Nl2main_x1 ) main_x ) ( * ( + 0 Nl2main_y1 ) main_y ) ( * ( + 0 Nl2main_z1 ) main_z ) ) 0 ) ( <= ( + ( - 1 ) ( * ( - 1 ) main_x ) ) 0 ) ( <= ( + ( - 1 ) ( * ( - 1 ) main_c ) ) 0 ) ) ))
(assert ( or ( and ( and ( >= lam19n0 0 ) ( >= lam19n1 0 ) ( >= lam19n2 0 ) ( >= lam19n3 0 ) ( >= lam19n4 0 ) ( >= lam19n5 0 ) ( >= lam19n6 0 ) ( >= lam19n7 0 ) ( >= lam19n8 0 ) ( >= lam19n9 0 ) ( >= lam19n11 0 ) ( > ( + ( * 1 lam19n0 ) ( * 1 lam19n1 ) ( * 1 lam19n2 ) ( * ( - 1 ) lam19n3 ) ( * 2 lam19n4 ) ( * 2 lam19n5 ) ( * 2 lam19n6 ) ( * 2 lam19n7 ) ( * 50001 lam19n8 ) ( * 50001 lam19n9 ) ( * ( - 1 ) lam19n10 ) ( * Nl2CT1 lam19n11 ) ( - 1 ( - ( + ( + RFN1_CT ( * RFN1_main_c 1 ) ) ( * RFN1_main_y 0 ) ) RFN1_CT ) ) ) 0 ) ( = ( + ( * ( - 1 ) lam19n0 ) ( * ( - 1 ) lam19n4 ) ( * ( - 1 ) lam19n5 ) ( * ( - 1 ) lam19n8 ) ( * ( - 1 ) lam19n9 ) ( * Nl2main_c1 lam19n11 ) ( - ( - ( + 0 ( * RFN1_main_c 1 ) ) RFN1_main_c ) ) ) 0 ) ( = ( + ( * ( - 1 ) lam19n0 ) ( * 1 lam19n3 ) ( * ( - 1 ) lam19n4 ) ( * ( - 1 ) lam19n5 ) ( * ( - 1 ) lam19n6 ) ( * 1 lam19n9 ) ( * 1 lam19n10 ) ( * Nl2main_flag1 lam19n11 ) ( - ( - ( + 0 RFN1_main_flag ) RFN1_main_flag ) ) ) 0 ) ( = ( + ( * ( - 1 ) lam19n3 ) ( * ( - 1 ) lam19n6 ) ( * ( - 1 ) lam19n7 ) ( * 1 lam19n9 ) ( * Nl2main_x1 lam19n11 ) ( - ( - ( + 0 RFN1_main_x ) RFN1_main_x ) ) ) 0 ) ( = ( + ( * ( - 1 ) lam19n0 ) ( * 1 lam19n1 ) ( * ( - 1 ) lam19n2 ) ( * ( - 1 ) lam19n5 ) ( * Nl2main_y1 lam19n11 ) ( - ( - RFN1_main_y ) ) ) 0 ) ( = ( + ( * 1 lam19n0 ) ( * ( - 1 ) lam19n1 ) ( * 1 lam19n9 ) ( * Nl2main_z1 lam19n11 ) ( - ( - ( + 0 RFN1_main_z ) RFN1_main_z ) ) ) 0 ) ( = ( - ( + 0 ( * RFN1_main_y 1 ) ) ) 0 ) ) ( and ( and ( >= lam17n0 0 ) ( >= lam17n1 0 ) ( >= lam17n2 0 ) ( >= lam17n3 0 ) ( >= lam17n4 0 ) ( >= lam17n5 0 ) ( >= lam17n6 0 ) ( >= lam17n7 0 ) ( >= lam17n8 0 ) ( >= lam17n9 0 ) ( >= lam17n11 0 ) ( > ( + ( * 1 lam17n0 ) ( * 1 lam17n1 ) ( * 1 lam17n2 ) ( * ( - 1 ) lam17n3 ) ( * 2 lam17n4 ) ( * 2 lam17n5 ) ( * 2 lam17n6 ) ( * 2 lam17n7 ) ( * 50001 lam17n8 ) ( * 50001 lam17n9 ) ( * ( - 1 ) lam17n10 ) ( * Nl2CT1 lam17n11 ) ( - 1 ( - RFN1_CT ) ) ) 0 ) ( = ( + ( * ( - 1 ) lam17n0 ) ( * ( - 1 ) lam17n4 ) ( * ( - 1 ) lam17n5 ) ( * ( - 1 ) lam17n8 ) ( * ( - 1 ) lam17n9 ) ( * Nl2main_c1 lam17n11 ) ( - ( - RFN1_main_c ) ) ) 0 ) ( = ( + ( * ( - 1 ) lam17n0 ) ( * 1 lam17n3 ) ( * ( - 1 ) lam17n4 ) ( * ( - 1 ) lam17n5 ) ( * ( - 1 ) lam17n6 ) ( * 1 lam17n9 ) ( * 1 lam17n10 ) ( * Nl2main_flag1 lam17n11 ) ( - ( - RFN1_main_flag ) ) ) 0 ) ( = ( + ( * ( - 1 ) lam17n3 ) ( * ( - 1 ) lam17n6 ) ( * ( - 1 ) lam17n7 ) ( * 1 lam17n9 ) ( * Nl2main_x1 lam17n11 ) ( - ( - RFN1_main_x ) ) ) 0 ) ( = ( + ( * ( - 1 ) lam17n0 ) ( * 1 lam17n1 ) ( * ( - 1 ) lam17n2 ) ( * ( - 1 ) lam17n5 ) ( * Nl2main_y1 lam17n11 ) ( - ( - RFN1_main_y ) ) ) 0 ) ( = ( + ( * 1 lam17n0 ) ( * ( - 1 ) lam17n1 ) ( * 1 lam17n9 ) ( * Nl2main_z1 lam17n11 ) ( - ( - RFN1_main_z ) ) ) 0 ) ) ( and ( >= lam18n0 0 ) ( >= lam18n1 0 ) ( >= lam18n2 0 ) ( >= lam18n3 0 ) ( >= lam18n4 0 ) ( >= lam18n5 0 ) ( >= lam18n6 0 ) ( >= lam18n7 0 ) ( >= lam18n8 0 ) ( >= lam18n9 0 ) ( >= lam18n11 0 ) ( > ( + ( * 1 lam18n0 ) ( * 1 lam18n1 ) ( * 1 lam18n2 ) ( * ( - 1 ) lam18n3 ) ( * 2 lam18n4 ) ( * 2 lam18n5 ) ( * 2 lam18n6 ) ( * 2 lam18n7 ) ( * 50001 lam18n8 ) ( * 50001 lam18n9 ) ( * ( - 1 ) lam18n10 ) ( * Nl2CT1 lam18n11 ) ( - 1 ( + ( - ( + ( + RFN1_CT ( * RFN1_main_c 1 ) ) ( * RFN1_main_y 0 ) ) RFN1_CT ) 1 ) ) ) 0 ) ( = ( + ( * ( - 1 ) lam18n0 ) ( * ( - 1 ) lam18n4 ) ( * ( - 1 ) lam18n5 ) ( * ( - 1 ) lam18n8 ) ( * ( - 1 ) lam18n9 ) ( * Nl2main_c1 lam18n11 ) ( - ( - ( + 0 ( * RFN1_main_c 1 ) ) RFN1_main_c ) ) ) 0 ) ( = ( + ( * ( - 1 ) lam18n0 ) ( * 1 lam18n3 ) ( * ( - 1 ) lam18n4 ) ( * ( - 1 ) lam18n5 ) ( * ( - 1 ) lam18n6 ) ( * 1 lam18n9 ) ( * 1 lam18n10 ) ( * Nl2main_flag1 lam18n11 ) ( - ( - ( + 0 RFN1_main_flag ) RFN1_main_flag ) ) ) 0 ) ( = ( + ( * ( - 1 ) lam18n3 ) ( * ( - 1 ) lam18n6 ) ( * ( - 1 ) lam18n7 ) ( * 1 lam18n9 ) ( * Nl2main_x1 lam18n11 ) ( - ( - ( + 0 RFN1_main_x ) RFN1_main_x ) ) ) 0 ) ( = ( + ( * ( - 1 ) lam18n0 ) ( * 1 lam18n1 ) ( * ( - 1 ) lam18n2 ) ( * ( - 1 ) lam18n5 ) ( * Nl2main_y1 lam18n11 ) ( - ( - RFN1_main_y ) ) ) 0 ) ( = ( + ( * 1 lam18n0 ) ( * ( - 1 ) lam18n1 ) ( * 1 lam18n9 ) ( * Nl2main_z1 lam18n11 ) ( - ( - ( + 0 RFN1_main_z ) RFN1_main_z ) ) ) 0 ) ( = ( - ( + 0 ( * RFN1_main_y 1 ) ) ) 0 ) ) ) ) ( and ( >= lam16n0 0 ) ( >= lam16n1 0 ) ( >= lam16n2 0 ) ( >= lam16n3 0 ) ( >= lam16n4 0 ) ( >= lam16n5 0 ) ( >= lam16n6 0 ) ( >= lam16n7 0 ) ( >= lam16n8 0 ) ( >= lam16n9 0 ) ( >= lam16n11 0 ) ( > ( + ( * 1 lam16n0 ) ( * 1 lam16n1 ) ( * 1 lam16n2 ) ( * ( - 1 ) lam16n3 ) ( * 2 lam16n4 ) ( * 2 lam16n5 ) ( * 2 lam16n6 ) ( * 2 lam16n7 ) ( * 50001 lam16n8 ) ( * 50001 lam16n9 ) ( * ( - 1 ) lam16n10 ) ( * Nl2CT1 lam16n11 ) ( - 1 ) ) 0 ) ( = ( + ( * ( - 1 ) lam16n0 ) ( * ( - 1 ) lam16n4 ) ( * ( - 1 ) lam16n5 ) ( * ( - 1 ) lam16n8 ) ( * ( - 1 ) lam16n9 ) ( * Nl2main_c1 lam16n11 ) ) 0 ) ( = ( + ( * ( - 1 ) lam16n0 ) ( * 1 lam16n3 ) ( * ( - 1 ) lam16n4 ) ( * ( - 1 ) lam16n5 ) ( * ( - 1 ) lam16n6 ) ( * 1 lam16n9 ) ( * 1 lam16n10 ) ( * Nl2main_flag1 lam16n11 ) ) 0 ) ( = ( + ( * ( - 1 ) lam16n3 ) ( * ( - 1 ) lam16n6 ) ( * ( - 1 ) lam16n7 ) ( * 1 lam16n9 ) ( * Nl2main_x1 lam16n11 ) ) 0 ) ( = ( + ( * ( - 1 ) lam16n0 ) ( * 1 lam16n1 ) ( * ( - 1 ) lam16n2 ) ( * ( - 1 ) lam16n5 ) ( * Nl2main_y1 lam16n11 ) ) 0 ) ( = ( + ( * 1 lam16n0 ) ( * ( - 1 ) lam16n1 ) ( * 1 lam16n9 ) ( * Nl2main_z1 lam16n11 ) ) 0 ) ) ))
(check-sat)
(exit)
